words_easy_train/words_8_UNSAT.qaiger
aag 31 16 0 1 15
16
18
6
22
28
30
32
12
20
2
26
24
4
10
8
14
62
34 31 4
36 27 8
38 16 14
40 38 12
42 40 10
44 43 37
46 30 5
48 26 9
50 49 6
52 50 47
54 52 45
56 55 35
58 56 3
60 57 2
62 61 59
i0 1 x2[7]
i1 2 y2[0]
i2 1 x2[2]
i3 2 y2[2]
i4 2 y2[5]
i5 2 y2[6]
i6 2 y2[7]
i7 1 x2[5]
i8 2 y2[1]
i9 1 x2[0]
i10 2 y2[4]
i11 2 y2[3]
i12 1 x2[1]
i13 1 x2[4]
i14 1 x2[3]
i15 1 x2[6]
o0 bv[0]
c
simplified
  >
    or
      -81
      2 y2
    reverse
      1 x2
