words_easy_train/words_8_UNSAT.qaiger.qdimacs
p cnf 31 46
a 1 2 3 4 5 6 7 8 0
e 9 10 11 12 13 14 15 16 17 18 19 20 21 22 23 24 25 26 27 28 29 30 31 0
15 -2 17 0
-15 -17 0
2 -17 0
13 -4 18 0
-13 -18 0
4 -18 0
-8 -7 19 0
8 -19 0
7 -19 0
-19 -6 20 0
19 -20 0
6 -20 0
-20 -5 21 0
20 -21 0
5 -21 0
21 18 22 0
-21 -22 0
-18 -22 0
-15 2 23 0
15 -23 0
-2 -23 0
-13 4 24 0
13 -24 0
-4 -24 0
24 -3 25 0
-24 -25 0
3 -25 0
-25 23 26 0
25 -26 0
-23 -26 0
-26 22 27 0
26 -27 0
-22 -27 0
27 17 28 0
-27 -28 0
-17 -28 0
-28 1 29 0
28 -29 0
-1 -29 0
28 -1 30 0
-28 -30 0
1 -30 0
30 29 31 0
-30 -31 0
-29 -31 0
31 0
